
Gurobi 7.0.2 (linux64) logging started Mon Jun 12 14:06:26 2017

Changed value of parameter logfile to result/NEIS-20170612T0949/scenario_200000PVS30PVWE10var-cost0027.log
   Prev: gurobi.log  Default: 
Optimize a model with 1059933 rows, 937229 columns and 3979188 nonzeros
Coefficient statistics:
  Matrix range     [8e-04, 1e+05]
  Objective range  [1e+00, 1e+00]
  Bounds range     [0e+00, 0e+00]
  RHS range        [3e-03, 2e+05]

Concurrent LP optimizer: primal simplex, dual simplex, and barrier
Showing barrier log only...

Presolve removed 594694 rows and 643281 columns
Presolve time: 2.72s
Presolved: 465239 rows, 293948 columns, 1347043 nonzeros

Ordering time: 0.40s

Barrier statistics:
 Dense cols : 21
 AA' NZ     : 1.881e+06
 Factor NZ  : 6.959e+06 (roughly 400 MBytes of memory)
 Factor Ops : 1.640e+08 (less than 1 second per iteration)
 Threads    : 22

                  Objective                Residual
Iter       Primal          Dual         Primal    Dual     Compl     Time
   0   3.86420640e+11 -2.66645309e+11  9.53e+02 6.93e+03  2.20e+07     4s
   1   3.05998417e+11 -9.70513082e+10  6.99e+02 1.33e+04  7.03e+06     5s
   2   2.98735143e+11 -6.89626968e+10  6.90e+02 8.97e+03  5.68e+06     5s
   3   2.08035206e+11 -1.18037260e+11  5.45e+02 1.96e+03  5.36e+06     6s
   4   4.28539524e+10 -1.15764095e+11  8.37e+01 1.64e+02  9.58e+05     6s
   5   4.14293334e+09 -6.25485262e+10  6.27e+00 4.30e+00  1.35e+05     7s
   6   5.24477282e+08 -1.65518850e+10  3.51e-01 6.48e-06  2.49e+04     7s
   7   2.47505952e+08 -2.34379968e+09  4.78e-02 3.42e-07  3.62e+03     8s
   8   1.37713703e+08 -1.06769431e+09  8.38e-03 1.61e-08  1.67e+03     8s
   9   8.71474816e+07 -1.30811770e+08  7.96e-04 9.09e-08  3.01e+02     9s
  10   8.54607314e+07 -3.41085537e+07  7.68e-04 1.20e-08  1.65e+02     9s
  11   6.21656317e+07 -2.72115099e+07  5.06e-04 1.80e-08  1.23e+02    10s
  12   5.18623079e+07 -2.38664290e+07  3.71e-04 1.63e-08  1.05e+02    10s
  13   3.23815499e+07 -4.97266539e+06  1.57e-04 8.27e-09  5.16e+01    11s
  14   2.68435245e+07  6.66309104e+06  1.13e-04 1.61e-09  2.79e+01    11s
  15   2.37394593e+07  8.90233217e+06  8.81e-05 1.81e-09  2.05e+01    11s
  16   2.03981934e+07  1.03222637e+07  6.06e-05 6.16e-10  1.39e+01    12s
  17   1.88283749e+07  1.09884121e+07  4.80e-05 3.68e-10  1.08e+01    13s
  18   1.77590874e+07  1.15968155e+07  3.93e-05 3.32e-09  8.51e+00    13s
  19   1.68012871e+07  1.18513842e+07  3.07e-05 3.96e-09  6.84e+00    14s
  20   1.59074446e+07  1.22069127e+07  2.27e-05 2.62e-10  5.11e+00    14s
  21   1.53578598e+07  1.24382830e+07  1.78e-05 2.62e-10  4.03e+00    14s
  22   1.50075027e+07  1.26147405e+07  1.46e-05 3.61e-09  3.30e+00    15s
  23   1.46789228e+07  1.27614124e+07  1.18e-05 5.82e-10  2.65e+00    15s
  24   1.43085508e+07  1.29108772e+07  8.63e-06 2.62e-10  1.93e+00    16s
  25   1.40455783e+07  1.30534737e+07  6.27e-06 1.40e-09  1.37e+00    17s
  26   1.38942219e+07  1.31224096e+07  4.90e-06 5.18e-09  1.07e+00    17s
  27   1.38128531e+07  1.31500490e+07  4.19e-06 3.20e-09  9.15e-01    17s
  28   1.37631062e+07  1.31659174e+07  3.74e-06 7.86e-09  8.25e-01    18s
  29   1.36951115e+07  1.31890385e+07  3.13e-06 9.08e-09  6.99e-01    18s
  30   1.36413106e+07  1.32066255e+07  2.69e-06 6.64e-09  6.00e-01    19s
  31   1.35783491e+07  1.32245282e+07  2.13e-06 5.24e-09  4.89e-01    19s
  32   1.35487610e+07  1.32467100e+07  1.87e-06 1.02e-08  4.17e-01    20s
  33   1.34910391e+07  1.32671306e+07  1.39e-06 8.27e-09  3.09e-01    20s
  34   1.34495288e+07  1.32873967e+07  1.02e-06 9.90e-09  2.24e-01    21s
  35   1.34270513e+07  1.32935620e+07  8.28e-07 9.95e-09  1.84e-01    21s
  36   1.34249759e+07  1.32953666e+07  8.11e-07 1.09e-08  1.79e-01    22s
  37   1.34138238e+07  1.32997739e+07  7.13e-07 1.39e-08  1.57e-01    22s
  38   1.34023449e+07  1.33083098e+07  6.18e-07 1.30e-08  1.30e-01    23s
  39   1.33929324e+07  1.33109806e+07  5.36e-07 1.05e-08  1.13e-01    23s
  40   1.33767843e+07  1.33128253e+07  4.01e-07 1.15e-08  8.83e-02    24s
  41   1.33648596e+07  1.33176413e+07  3.03e-07 1.08e-08  6.52e-02    24s
  42   1.33610794e+07  1.33192088e+07  2.72e-07 6.58e-09  5.78e-02    25s
  43   1.33596189e+07  1.33201204e+07  2.60e-07 9.20e-09  5.45e-02    25s
  44   1.33542798e+07  1.33204207e+07  2.15e-07 7.04e-09  4.68e-02    26s
  45   1.33515692e+07  1.33210513e+07  1.92e-07 8.09e-09  4.21e-02    26s
  46   1.33493068e+07  1.33231729e+07  1.74e-07 1.57e-09  3.61e-02    27s
  47   1.33465439e+07  1.33235867e+07  1.51e-07 1.35e-09  3.17e-02    27s
  48   1.33441535e+07  1.33245341e+07  1.31e-07 7.04e-09  2.71e-02    27s
  49   1.33419359e+07  1.33249487e+07  1.14e-07 9.37e-09  2.35e-02    28s
  50   1.33399024e+07  1.33255773e+07  9.63e-08 1.13e-08  1.98e-02    29s
  51   1.33383686e+07  1.33258351e+07  8.28e-08 8.21e-09  1.73e-02    29s
  52   1.33367406e+07  1.33262810e+07  6.86e-08 7.92e-09  1.44e-02    29s
  53   1.33356809e+07  1.33264211e+07  5.97e-08 1.02e-08  1.28e-02    30s
  54   1.33349431e+07  1.33270323e+07  5.35e-08 6.00e-09  1.09e-02    30s
  55   1.33339034e+07  1.33273360e+07  4.47e-08 4.95e-09  9.07e-03    31s
  56   1.33328010e+07  1.33277045e+07  3.55e-08 3.90e-09  7.04e-03    31s
  57   1.33321063e+07  1.33278086e+07  3.03e-08 6.52e-09  5.93e-03    32s
  58   1.33315299e+07  1.33278760e+07  2.52e-08 5.70e-09  5.05e-03    33s
  59   1.33311936e+07  1.33280662e+07  2.22e-08 1.75e-09  4.32e-03    33s
  60   1.33307393e+07  1.33282120e+07  1.82e-08 5.87e-09  3.49e-03    33s
  61   1.33305183e+07  1.33282607e+07  1.63e-08 6.53e-09  3.12e-03    34s
  62   1.33303000e+07  1.33283266e+07  1.45e-08 4.64e-09  2.73e-03    34s
  63   1.33299181e+07  1.33283601e+07  1.11e-08 4.36e-09  2.15e-03    35s
  64   1.33296924e+07  1.33284156e+07  9.32e-09 3.05e-09  1.76e-03    35s
  65   1.33293304e+07  1.33284896e+07  6.20e-09 1.55e-08  1.16e-03    36s
  66   1.33292583e+07  1.33285053e+07  5.63e-09 8.56e-09  1.04e-03    36s
  67   1.33292012e+07  1.33285178e+07  5.13e-09 9.08e-09  9.44e-04    37s
  68   1.33291219e+07  1.33285353e+07  4.43e-09 8.55e-09  8.10e-04    37s
  69   1.33290635e+07  1.33285397e+07  3.92e-09 7.84e-09  7.23e-04    38s
  70   1.33288184e+07  1.33285591e+07  1.83e-09 5.33e-09  3.58e-04    38s
  71   1.33287018e+07  1.33285818e+07  9.22e-10 1.06e-08  1.66e-04    39s
  72   1.33286975e+07  1.33285830e+07  3.75e-07 1.46e-08  1.58e-04    40s
  73   1.33286743e+07  1.33285873e+07  3.70e-07 1.59e-08  1.20e-04    41s
  74   1.33286437e+07  1.33285955e+07  4.14e-07 1.11e-08  6.65e-05    41s
  75   1.33286370e+07  1.33285970e+07  9.49e-07 2.52e-08  5.53e-05    42s
  76   1.33286370e+07  1.33285970e+07  2.94e-06 2.51e-08  5.52e-05    42s
  77   1.33286243e+07  1.33285974e+07  1.94e-06 2.26e-07  3.72e-05    43s
  78   1.33286157e+07  1.33285988e+07  1.26e-06 6.81e-09  2.32e-05    44s
  79   1.33286157e+07  1.33285988e+07  1.26e-06 8.96e-09  2.32e-05    45s
  80   1.33286157e+07  1.33285988e+07  1.26e-06 9.78e-09  2.32e-05    45s
  81   1.33286157e+07  1.33285988e+07  1.26e-06 5.38e-10  2.32e-05    46s
  82   1.33286157e+07  1.33285988e+07  1.31e-06 5.38e-10  2.32e-05    47s
  83   1.33286157e+07  1.33285988e+07  2.83e-06 3.64e-10  2.32e-05    48s
  84   1.33286157e+07  1.33285988e+07  3.53e-06 2.76e-10  2.32e-05    49s
  85   1.33286157e+07  1.33285988e+07  3.53e-06 6.84e-10  2.32e-05    50s
  86   1.33286157e+07  1.33285988e+07  3.53e-06 5.68e-10  2.32e-05    51s
  87   1.33286157e+07  1.33285988e+07  3.53e-06 5.97e-10  2.32e-05    51s
  88   1.33286157e+07  1.33285988e+07  3.53e-06 5.09e-10  2.32e-05    52s

Barrier performed 88 iterations in 52.29 seconds
Sub-optimal termination - objective 1.33286157e+07

Crossover log...

  176871 DPushes remaining with DInf 0.0000000e+00                53s
   51288 DPushes remaining with DInf 0.0000000e+00                55s
   42744 DPushes remaining with DInf 0.0000000e+00                60s
   39184 DPushes remaining with DInf 0.0000000e+00                65s
   36336 DPushes remaining with DInf 0.0000000e+00                70s
   33844 DPushes remaining with DInf 0.0000000e+00                75s
   30996 DPushes remaining with DInf 0.0000000e+00                80s
   28504 DPushes remaining with DInf 0.0000000e+00                85s
   22808 DPushes remaining with DInf 0.0000000e+00                90s
   17112 DPushes remaining with DInf 0.0000000e+00                95s
   12128 DPushes remaining with DInf 0.0000000e+00               100s
    7060 DPushes remaining with DInf 0.0000000e+00               105s
    4118 DPushes remaining with DInf 0.0000000e+00               110s
       0 DPushes remaining with DInf 1.6530714e-09               113s

  165430 PPushes remaining with PInf 8.4574263e-03               113s
   11684 PPushes remaining with PInf 8.7215980e-02               115s
       0 PPushes remaining with PInf 0.0000000e+00               117s

  Push phase complete: Pinf 0.0000000e+00, Dinf 7.6925346e+04    117s

Iteration    Objective       Primal Inf.    Dual Inf.      Time
  341463    1.3328600e+07   0.000000e+00   7.692535e+04    117s
  341611    1.3328600e+07   0.000000e+00   0.000000e+00    118s

Solved with barrier
Solved in 341611 iterations and 118.60 seconds
Optimal objective  1.332859953e+07
